Route #1: 59 3 6 47 55 7 41
Route #2: 15 8 24 56 14 40
Route #3: 13 23 5 27 44 33 43 34
Route #4: 10 52 20 25 50 11 4
Route #5: 51 18 58 53 29 61 12 45
Route #6: 48 36 49 17 35 2 32
Route #7: 26 21 42 9 54 30 28
Route #8: 57 19 22 37 46 38 60 16
Route #9: 31 39
cost 1198
